benchmarks_vrp/CMT12/fixed_c_size/CMT12_0.vrp
NAME: CMT12_0
TYPE: CVRP
COMMENT: 819.56 - Cluster Nr.0
DIMENSION: 15
CAPACITY: 200
EDGE_WEIGHT_TYPE: EUC_2D
NODE_COORD_TYPE: TWOD_COORDS
NODE_COORD_SECTION: 
6 66 55
2 40 66
10 42 65
3 40 50
9 63 58
12 65 60
5 42 68
8 65 55
13 45 68
14 45 70
11 60 55
4 45 65
1 42 66
7 40 69
15 60 60
DEPOT_SECTION: 
3
-1
DEMAND_SECTION: 
1 10
12 30
6 10
3 0
7 20
2 20
4 20
15 10
5 10
9 10
8 20
14 30
10 10
13 10
11 10
EOF
