benchmarks_vrp/CMT12/fixed_c_size/CMT12_0.tour
NAME: CMT12_0 solution
TYPE: TOUR
TOUR_SECTION:
3 4 13 14 5 7 2 1 10 -1
3 11 8 6 9 12 15 -1
-1
EOF